/* Objective function */
max: 385 x11 + 385 x12 + 385 x13 + 330 x21 + 330 x22 + 330 x23 + 275 x31 + 275 x32 + 275 x33; 

/* Constraints */
Space1: 20 x11 + 15 x21 + 12 x31 <= 13000;
Space2: 20 x12 + 15 x22 + 12 x32 <= 12000;
Space3: 20 x13 + 15 x23 + 12 x33 <= 5000;

Sales1: + x11 + x12 + x13 <= 900;
Sales2: + x21 + x22 + x23 <= 1200;
Sales3: + x31 + x32 + x33 <= 750;

Cap1: + x11 + x21 + x31 <= 750;
Cap2: + x12 + x22 + x32 <= 900;
Cap3: + x13 + x23 + x33 <= 450;

Rat1: +0.00133 x11 +0.00133 x21 +0.00133 x31 -0.00111 x12 10.00111 x22 -0.00111 x32 = 0;
Rat2: +0.00111 x12 +0.00111 x22 +0.00111 x32 -0.00222 x13 -0.00222 x23 -0.00222 x33 = 0;